
Gurobi 6.5.2 (mac64) logging started Fri Aug  5 10:25:53 2016


Gurobi 6.5.2 (mac64) logging started Fri Aug  5 10:26:17 2016


Gurobi 6.5.2 (mac64) logging started Fri Aug  5 10:26:43 2016


Gurobi 6.5.2 (mac64) logging started Fri Aug  5 10:27:04 2016


Gurobi 6.5.2 (mac64) logging started Fri Aug  5 10:28:19 2016


Gurobi 6.5.2 (mac64) logging started Fri Aug  5 10:29:27 2016


Gurobi 6.5.2 (mac64) logging started Fri Aug  5 10:29:52 2016


Gurobi 6.5.2 (mac64) logging started Fri Aug  5 10:29:54 2016

Optimize a model with 1254 rows, 400 columns and 1798 nonzeros
Coefficient statistics:
  Matrix range    [5e-01, 1e+00]
  Objective range [1e-02, 6e+00]
  Bounds range    [1e+00, 2e+00]
  RHS range       [1e+00, 2e+00]
Presolve removed 878 rows and 259 columns
Presolve time: 0.00s

Explored 0 nodes (0 simplex iterations) in 0.00 seconds
Thread count was 1 (of 8 available processors)

Model is infeasible
Best objective -, best bound -, gap -

Gurobi 6.5.2 (mac64) logging started Fri Aug  5 10:30:01 2016

Optimize a model with 1254 rows, 400 columns and 1798 nonzeros
Coefficient statistics:
  Matrix range    [5e-01, 1e+00]
  Objective range [1e-02, 6e+00]
  Bounds range    [1e+00, 2e+00]
  RHS range       [1e+00, 2e+00]
Presolve removed 878 rows and 259 columns
Presolve time: 0.00s

Explored 0 nodes (0 simplex iterations) in 0.00 seconds
Thread count was 1 (of 8 available processors)

Model is infeasible
Best objective -, best bound -, gap -

Gurobi 6.5.2 (mac64) logging started Fri Aug  5 10:30:57 2016

Optimize a model with 1254 rows, 400 columns and 1798 nonzeros
Coefficient statistics:
  Matrix range    [5e-01, 1e+00]
  Objective range [1e-02, 6e+00]
  Bounds range    [1e+00, 2e+00]
  RHS range       [1e+00, 2e+00]
Presolve removed 878 rows and 259 columns
Presolve time: 0.00s

Explored 0 nodes (0 simplex iterations) in 0.00 seconds
Thread count was 1 (of 8 available processors)

Model is infeasible
Best objective -, best bound -, gap -

Gurobi 6.5.2 (mac64) logging started Fri Aug  5 10:30:58 2016

Optimize a model with 1254 rows, 400 columns and 1798 nonzeros
Coefficient statistics:
  Matrix range    [5e-01, 1e+00]
  Objective range [1e-02, 6e+00]
  Bounds range    [1e+00, 2e+00]
  RHS range       [1e+00, 2e+00]
Presolve removed 878 rows and 259 columns
Presolve time: 0.00s

Explored 0 nodes (0 simplex iterations) in 0.00 seconds
Thread count was 1 (of 8 available processors)

Model is infeasible
Best objective -, best bound -, gap -

Gurobi 6.5.2 (mac64) logging started Fri Aug  5 10:32:52 2016

Optimize a model with 1254 rows, 400 columns and 1798 nonzeros
Coefficient statistics:
  Matrix range    [5e-01, 1e+00]
  Objective range [1e-02, 6e+00]
  Bounds range    [1e+00, 2e+00]
  RHS range       [1e+00, 2e+00]
Presolve removed 878 rows and 259 columns
Presolve time: 0.00s

Explored 0 nodes (0 simplex iterations) in 0.00 seconds
Thread count was 1 (of 8 available processors)

Model is infeasible
Best objective -, best bound -, gap -

Gurobi 6.5.2 (mac64) logging started Fri Aug  5 10:34:35 2016

Optimize a model with 1254 rows, 400 columns and 1798 nonzeros
Coefficient statistics:
  Matrix range    [1e+00, 1e+00]
  Objective range [1e-02, 6e+00]
  Bounds range    [1e+00, 1e+00]
  RHS range       [1e+00, 1e+00]
Found heuristic solution: objective 9.01
Presolve removed 1254 rows and 400 columns
Presolve time: 0.00s
Presolve: All rows and columns removed

Explored 0 nodes (0 simplex iterations) in 0.01 seconds
Thread count was 1 (of 8 available processors)

Optimal solution found (tolerance 1.00e-04)
Best objective 9.000000000000e+00, best bound 9.000000000000e+00, gap 0.0%

Gurobi 6.5.2 (mac64) logging started Fri Aug  5 10:34:44 2016

Optimize a model with 1254 rows, 400 columns and 1798 nonzeros
Coefficient statistics:
  Matrix range    [1e+00, 1e+00]
  Objective range [1e-02, 6e+00]
  Bounds range    [1e+00, 1e+00]
  RHS range       [1e+00, 1e+00]
Presolve removed 878 rows and 259 columns
Presolve time: 0.00s

Explored 0 nodes (0 simplex iterations) in 0.00 seconds
Thread count was 1 (of 8 available processors)

Model is infeasible
Best objective -, best bound -, gap -

Gurobi 6.5.2 (mac64) logging started Fri Aug  5 10:34:53 2016

Optimize a model with 1254 rows, 400 columns and 1798 nonzeros
Coefficient statistics:
  Matrix range    [5e-01, 1e+00]
  Objective range [1e-02, 6e+00]
  Bounds range    [1e+00, 2e+00]
  RHS range       [1e+00, 2e+00]
Found heuristic solution: objective 12.01
Presolve removed 1254 rows and 400 columns
Presolve time: 0.00s
Presolve: All rows and columns removed

Explored 0 nodes (0 simplex iterations) in 0.00 seconds
Thread count was 1 (of 8 available processors)

Optimal solution found (tolerance 1.00e-04)
Best objective 9.010000000000e+00, best bound 9.010000000000e+00, gap 0.0%

Gurobi 6.5.2 (mac64) logging started Fri Aug  5 10:35:13 2016

Optimize a model with 1254 rows, 400 columns and 1798 nonzeros
Coefficient statistics:
  Matrix range    [5e-01, 1e+00]
  Objective range [1e-02, 6e+00]
  Bounds range    [1e+00, 2e+00]
  RHS range       [1e+00, 2e+00]
Presolve removed 892 rows and 259 columns
Presolve time: 0.00s

Explored 0 nodes (0 simplex iterations) in 0.00 seconds
Thread count was 1 (of 8 available processors)

Model is infeasible
Best objective -, best bound -, gap -

Gurobi 6.5.2 (mac64) logging started Fri Aug  5 10:35:27 2016

Optimize a model with 1254 rows, 400 columns and 1798 nonzeros
Coefficient statistics:
  Matrix range    [5e-01, 1e+00]
  Objective range [1e-02, 6e+00]
  Bounds range    [1e+00, 2e+00]
  RHS range       [1e+00, 2e+00]
Presolve removed 903 rows and 259 columns
Presolve time: 0.00s

Explored 0 nodes (0 simplex iterations) in 0.00 seconds
Thread count was 1 (of 8 available processors)

Model is infeasible
Best objective -, best bound -, gap -

Gurobi 6.5.2 (mac64) logging started Fri Aug  5 10:35:31 2016

Optimize a model with 1254 rows, 400 columns and 1798 nonzeros
Coefficient statistics:
  Matrix range    [5e-01, 1e+00]
  Objective range [1e-02, 6e+00]
  Bounds range    [1e+00, 2e+00]
  RHS range       [1e+00, 2e+00]
Presolve removed 903 rows and 259 columns
Presolve time: 0.00s

Explored 0 nodes (0 simplex iterations) in 0.00 seconds
Thread count was 1 (of 8 available processors)

Model is infeasible
Best objective -, best bound -, gap -

Gurobi 6.5.2 (mac64) logging started Fri Aug  5 10:35:38 2016

Optimize a model with 1254 rows, 400 columns and 1798 nonzeros
Coefficient statistics:
  Matrix range    [5e-01, 1e+00]
  Objective range [1e-02, 6e+00]
  Bounds range    [1e+00, 2e+00]
  RHS range       [1e+00, 2e+00]
Presolve removed 914 rows and 259 columns
Presolve time: 0.00s

Explored 0 nodes (0 simplex iterations) in 0.00 seconds
Thread count was 1 (of 8 available processors)

Model is infeasible
Best objective -, best bound -, gap -

Gurobi 6.5.2 (mac64) logging started Fri Aug  5 10:35:39 2016

Optimize a model with 1254 rows, 400 columns and 1798 nonzeros
Coefficient statistics:
  Matrix range    [5e-01, 1e+00]
  Objective range [1e-02, 6e+00]
  Bounds range    [1e+00, 2e+00]
  RHS range       [1e+00, 2e+00]
Presolve removed 914 rows and 259 columns
Presolve time: 0.00s

Explored 0 nodes (0 simplex iterations) in 0.00 seconds
Thread count was 1 (of 8 available processors)

Model is infeasible
Best objective -, best bound -, gap -

Gurobi 6.5.2 (mac64) logging started Fri Aug  5 10:36:44 2016

Optimize a model with 1254 rows, 400 columns and 1798 nonzeros
Coefficient statistics:
  Matrix range    [5e-01, 1e+00]
  Objective range [1e-02, 6e+00]
  Bounds range    [1e+00, 2e+00]
  RHS range       [1e+00, 2e+00]
Presolve removed 896 rows and 259 columns
Presolve time: 0.00s

Explored 0 nodes (0 simplex iterations) in 0.00 seconds
Thread count was 1 (of 8 available processors)

Model is infeasible
Best objective -, best bound -, gap -

Gurobi 6.5.2 (mac64) logging started Fri Aug  5 10:36:45 2016

Optimize a model with 1254 rows, 400 columns and 1798 nonzeros
Coefficient statistics:
  Matrix range    [5e-01, 1e+00]
  Objective range [1e-02, 6e+00]
  Bounds range    [1e+00, 2e+00]
  RHS range       [1e+00, 2e+00]
Presolve removed 896 rows and 259 columns
Presolve time: 0.00s

Explored 0 nodes (0 simplex iterations) in 0.00 seconds
Thread count was 1 (of 8 available processors)

Model is infeasible
Best objective -, best bound -, gap -

Gurobi 6.5.2 (mac64) logging started Fri Aug  5 10:38:00 2016

Optimize a model with 1254 rows, 400 columns and 1798 nonzeros
Coefficient statistics:
  Matrix range    [5e-01, 1e+00]
  Objective range [1e-02, 6e+00]
  Bounds range    [1e+00, 2e+00]
  RHS range       [1e+00, 2e+00]
Presolve removed 887 rows and 259 columns
Presolve time: 0.00s

Explored 0 nodes (0 simplex iterations) in 0.00 seconds
Thread count was 1 (of 8 available processors)

Model is infeasible
Best objective -, best bound -, gap -

Gurobi 6.5.2 (mac64) logging started Fri Aug  5 10:38:12 2016

Optimize a model with 1254 rows, 400 columns and 1798 nonzeros
Coefficient statistics:
  Matrix range    [5e-01, 1e+00]
  Objective range [1e-02, 6e+00]
  Bounds range    [1e+00, 2e+00]
  RHS range       [1e+00, 2e+00]
Found heuristic solution: objective 9
Presolve removed 1254 rows and 400 columns
Presolve time: 0.00s
Presolve: All rows and columns removed

Explored 0 nodes (0 simplex iterations) in 0.00 seconds
Thread count was 1 (of 8 available processors)

Optimal solution found (tolerance 1.00e-04)
Best objective 9.000000000000e+00, best bound 9.000000000000e+00, gap 0.0%

Gurobi 6.5.2 (mac64) logging started Fri Aug  5 10:38:30 2016

Optimize a model with 1254 rows, 400 columns and 1798 nonzeros
Coefficient statistics:
  Matrix range    [5e-01, 1e+00]
  Objective range [1e-02, 6e+00]
  Bounds range    [1e+00, 2e+00]
  RHS range       [1e+00, 2e+00]
Found heuristic solution: objective 11.01
Presolve removed 1254 rows and 400 columns
Presolve time: 0.00s
Presolve: All rows and columns removed

Explored 0 nodes (0 simplex iterations) in 0.00 seconds
Thread count was 1 (of 8 available processors)

Optimal solution found (tolerance 1.00e-04)
Best objective 1.101000000000e+01, best bound 1.101000000000e+01, gap 0.0%

Gurobi 6.5.2 (mac64) logging started Fri Aug  5 10:51:42 2016

Optimize a model with 1254 rows, 400 columns and 1798 nonzeros
Coefficient statistics:
  Matrix range    [5e-01, 1e+00]
  Objective range [1e-02, 6e+00]
  Bounds range    [1e+00, 2e+00]
  RHS range       [1e+00, 2e+00]
Found heuristic solution: objective 11.01
Presolve removed 1254 rows and 400 columns
Presolve time: 0.00s
Presolve: All rows and columns removed

Explored 0 nodes (0 simplex iterations) in 0.00 seconds
Thread count was 1 (of 8 available processors)

Optimal solution found (tolerance 1.00e-04)
Best objective 1.101000000000e+01, best bound 1.101000000000e+01, gap 0.0%

Gurobi 6.5.2 (mac64) logging started Fri Aug  5 11:05:58 2016

Optimize a model with 806689 rows, 269336 columns and 1135217 nonzeros
Coefficient statistics:
  Matrix range    [1e+00, 1e+00]
  Objective range [1e-03, 1e+00]
  Bounds range    [1e+00, 1e+00]
  RHS range       [1e+00, 1e+00]
Found heuristic solution: objective 37
Presolve removed 804635 rows and 266830 columns
Presolve time: 0.49s
Presolved: 2054 rows, 2506 columns, 7274 nonzeros
Variable types: 0 continuous, 2506 integer (2506 binary)

Root relaxation: objective 7.167170e+00, 2623 iterations, 0.27 seconds

    Nodes    |    Current Node    |     Objective Bounds      |     Work
 Expl Unexpl |  Obj  Depth IntInf | Incumbent    BestBd   Gap | It/Node Time

     0     0    7.16717    0  175   37.00000    7.16717  80.6%     -    0s
H    0     0                      28.0000000    7.16717  74.4%     -    0s
H    0     0                      10.0040000    7.16717  28.4%     -    0s
     0     0    7.97570    0  217   10.00400    7.97570  20.3%     -    1s
     0     0    7.97572    0  217   10.00400    7.97572  20.3%     -    1s
     0     0    8.00367    0   43   10.00400    8.00367  20.0%     -    1s
     0     0    8.05620    0  273   10.00400    8.05620  19.5%     -    1s
H    0     0                      10.0030000    8.05620  19.5%     -    1s
     0     0    8.21358    0  341   10.00300    8.21358  17.9%     -    1s
H    0     0                       9.0040000    8.21358  8.78%     -    1s
     0     0    8.38569    0  246    9.00400    8.38569  6.87%     -    1s
     0     0    8.50455    0  327    9.00400    8.50455  5.55%     -    1s
     0     0    8.50455    0   75    9.00400    8.50455  5.55%     -    1s
H    0     0                       9.0030000    8.50455  5.54%     -    1s
     0     0    8.50455    0  196    9.00300    8.50455  5.54%     -    1s
     0     0    8.50455    0  315    9.00300    8.50455  5.54%     -    1s
     0     0    8.61464    0  217    9.00300    8.61464  4.31%     -    2s
     0     0    8.61464    0  145    9.00300    8.61464  4.31%     -    2s
     0     0    8.61464    0  224    9.00300    8.61464  4.31%     -    2s
     0     0    8.61464    0  212    9.00300    8.61464  4.31%     -    2s
     0     0    8.75500    0  105    9.00300    8.75500  2.75%     -    2s
     0     0    8.75500    0  117    9.00300    8.75500  2.75%     -    2s
     0     0    8.75500    0  208    9.00300    8.75500  2.75%     -    2s
     0     0     cutoff    0         9.00300    9.00201  0.01%     -    2s

Explored 0 nodes (7926 simplex iterations) in 2.25 seconds
Thread count was 8 (of 8 available processors)

Optimal solution found (tolerance 1.00e-04)
Best objective 9.003000000000e+00, best bound 9.003000000000e+00, gap 0.0%
